c 137_3_checker_5cl.cnf
c
c field = 137
c formula set type = 3_checker_5cl
c
p cnf 5 12
270 
274 
276 
-279 
-280 
271 
275 
277 
-278 
-281 
274 
276 
278 
-271 
-280 
275 
277 
279 
-270 
-281 
240 
304 
336 
-369 
-400 
241 
305 
337 
-368 
-401 
304 
336 
368 
-241 
-400 
305 
337 
369 
-240 
-401 
188 
216 
244 
-301 
-160 
189 
217 
245 
-300 
-161 
216 
244 
300 
-189 
-160 
217 
245 
301 
-188 
-161 
